instances/zerkani.gr
p tw 30 77
1 27
1 7
1 15
1 25
2 26
3 27
3 10
4 15
5 1
5 27
5 27
6 12
6 27
6 17
7 26
8 13
8 1
8 12
9 27
9 1
9 7
9 29
9 15
9 4
10 15
11 15
11 1
12 1
13 28
13 11
14 27
14 19
14 21
14 8
15 13
15 27
15 1
15 21
15 27
16 7
16 26
17 28
17 27
17 21
17 12
17 12
18 27
18 19
18 21
18 14
18 12
19 27
19 21
19 27
19 12
19 28
19 12
19 21
19 1
20 15
21 27
22 14
22 27
23 27
23 27
24 27
24 27
25 26
26 15
27 1
27 20
27 11
27 5
28 15
29 15
29 4
30 26