instances/zerkani.td
c Decomposition from Toto database
c graph6 ]u_@y?PCE?G?_@O@o?O_@{C?OOM_?__A`??_o?_Y_A@cO??O?_MS???G??CA????O????A????
s td 23 7 30
b 1 1 13 15 16 21
b 2 1 2 13 16 21 22 23
b 3 1 2 13 16 20 22 23
b 4 1 2 4 16 20 23
b 5 2 13 14 20 23
b 6 2 13 21 22 23 25
b 7 1 2 4 16 19
b 8 2 12 13 14
b 9 2 4 9
b 10 2 8 9
b 11 1 2 4 17
b 12 1 4 7 17
b 13 1 3 7 17
b 14 1 5 7
b 15 7 30
b 16 2 29
b 17 2 28
b 18 2 21 27
b 19 2 4 26
b 20 3 7 24
b 21 1 2 11
b 22 4 10 17 18
b 23 6 7
1 2
2 3
2 6
2 16
2 17
2 18
2 21
3 4
3 5
4 7
4 9
4 11
4 19
5 8
9 10
11 12
11 22
12 13
12 14
12 15
12 23
13 20
